Traveling Salesman Problem/TSP_generados/Aleatorio1620390963_11.tsp
NAME: Aleatorio1620390963_11.tsp
COMMENT: Randomly generated scenario
TYPE: TSP
DIMENSION: 11
EDGE_WEIGHT_TYPE: ATT
NODE_COORD_SECTION
1 43.66 31.2
2 5.21 10.49
3 2.75 38.53
4 41.73 21.34
5 1.68 24.01
6 38.03 40.72
7 8.19 9.57
8 6.77 11.62
9 4.14 33.94
10 26.91 21.35
11 48.97 48.05
