Traveling Salesman Problem/TSP_generados/Aleatorio1620390963_11.opt.tour
NAME: Aleatorio1620390963_11.opt.tour
COMMENT: Optimal solution for Aleatorio1620390963_11 (146.58784190687007)
TYPE: TOUR
DIMENSION: 11
TOUR_SECTION
1 11 6 3 9 5 2 8 7 10 4
-1
EOF
